c 9th DIMACS Implementation Challenge: Shortest Paths
c http://www.dis.uniroma1.it/~challenge9
c TIGER/Line graph USA-road-d.NY
c
p sp 264346 733846
c graph contains 264346 nodes and 733846 arcs
c
a 1 2 803
a 2 1 803
a 3 4 158
a 4 3 158
a 2 7 774
a 7 2 774
a 7 8 1531
a 8 7 1531
a 8 9 1435
a 9 8 2145
a 9 10 1673
a 10 9 1673
a 9 11 1400